language ESSENCE' 1.0

letting fixed be 
[
    [0,2,0,0,4,3,0,6,9],
    [0,0,3,8,9,6,2,0,0],
    [9,6,0,0,2,5,0,3,0],
    [8,9,0,5,6,0,0,1,3],
    [6,0,0,0,3,0,0,0,0],
    [0,3,0,0,8,1,0,2,6],
    [3,0,0,0,1,0,0,7,0],
    [0,0,9,6,7,4,3,0,2],
    [2,7,0,3,5,8,0,9,0]
]